\ This file has been generated by DOcplex
\ ENCODING=ISO-8859-1
\Problem name: random_problem.lp

Minimize
 obj: x0 - 5 x1 + 6 x2 + 3 x3 + 7 x4 - 6 x5 + 3 x7 + 3 x8 + 4 x9 + 4 x10 - 9 x11
      - 10 x12 + 3 x13 + 8 x14 - 4 x15 - 8 x16 + 10 x18 - x19 + [ - 12 x0*x1
      - 20 x0*x2 - 18 x0*x3 - 6 x0*x5 - 12 x0*x6 - 18 x0*x8 + 12 x0*x10
      - 10 x0*x12 + 14 x0*x16 + 8 x0*x18 - 10 x1*x2 - 12 x1*x6 + 10 x1*x9
      - 10 x1*x10 - 18 x1*x12 - 16 x1*x15 + 10 x1*x17 - 6 x1*x18 + 4 x1*x19
      + 8 x2*x3 - 4 x2*x5 - 16 x2*x8 + 18 x2*x9 - 2 x2*x13 - 16 x2*x14
      - 10 x2*x15 - 20 x2*x18 - 16 x3*x4 + 14 x3*x5 + 12 x3*x6 + 2 x3*x10
      - 2 x3*x11 + 10 x3*x13 - 4 x3*x14 - 14 x3*x19 + 4 x4*x6 + 12 x4*x7
      + 6 x4*x9 + 2 x4*x11 - 2 x4*x12 - 4 x4*x14 + 14 x4*x15 + 6 x4*x16
      - 20 x4*x19 + 12 x5*x6 + 8 x5*x7 + 4 x5*x9 - 4 x5*x12 - 20 x5*x13
      - 18 x5*x15 + 10 x5*x18 - 4 x6*x7 - 12 x6*x8 - 16 x6*x9 - 12 x6*x14
      - 12 x6*x15 - 12 x7*x10 - 4 x7*x12 + 20 x7*x13 + 10 x7*x15 - 12 x7*x16
      - 14 x7*x18 + 8 x7*x19 - 16 x8*x11 + 8 x8*x14 - 12 x8*x15 - 16 x8*x16
      + 10 x8*x17 + 10 x8*x18 + 4 x8*x19 + 6 x9*x11 - 2 x9*x12 + 4 x9*x14
      - 10 x9*x16 + 16 x9*x19 + 16 x10*x11 - 18 x10*x12 - 6 x10*x16 - 16 x10*x17
      - 14 x10*x18 - 14 x10*x19 + 20 x11*x13 + 20 x11*x14 - 8 x11*x15
      + 20 x11*x16 + 14 x11*x17 - 10 x12*x13 + 8 x12*x17 + 12 x12*x18
      + 16 x13*x14 - 2 x13*x16 + 20 x13*x17 - 14 x13*x19 - 2 x14*x15
      - 10 x14*x16 - 2 x15*x19 - 16 x16*x17 + 8 x17*x18 - 16 x17*x19 ]/2
Subject To
 c0: - x1 + 2 x2 + 2 x3 + 2 x5 + 2 x9 + x10 + 2 x12 - 2 x13 - x14 + x18 = -2
 c1: x1 - 2 x6 - x8 + 2 x12 + 2 x13 - 2 x15 - x16 + x17 - x18 + 2 x19 = 0
 c2: 2 x0 - 2 x1 - 2 x2 - x3 - x7 - 2 x8 + x13 - x15 - x17 - 2 x19 = 1
 c3: 2 x0 + 2 x1 + 2 x4 - x6 + x8 - 2 x10 - x12 - x13 - 2 x14 + 2 x18 = -2

Bounds
 0 <= x0 <= 1
 0 <= x1 <= 1
 0 <= x2 <= 1
 0 <= x3 <= 1
 0 <= x4 <= 1
 0 <= x5 <= 1
 0 <= x6 <= 1
 0 <= x7 <= 1
 0 <= x8 <= 1
 0 <= x9 <= 1
 0 <= x10 <= 1
 0 <= x11 <= 1
 0 <= x12 <= 1
 0 <= x13 <= 1
 0 <= x14 <= 1
 0 <= x15 <= 1
 0 <= x16 <= 1
 0 <= x17 <= 1
 0 <= x18 <= 1
 0 <= x19 <= 1

Binaries
 x0 x1 x2 x3 x4 x5 x6 x7 x8 x9 x10 x11 x12 x13 x14 x15 x16 x17 x18 x19
End
